47982.99,57.62,69.87
49139.12,56.26,68.23
52907.59,52.25,63.37
45220.95,61.14,74.14
45585.59,60.65,73.55
51130.79,54.07,65.57
44683.48,61.87,75.03
49887.65,55.42,67.2
42929.76,64.4,78.09
46795.5,59.08,71.64
49741.2,55.58,67.4
53417.71,51.76,62.76
51239.14,53.96,65.43
50898.97,54.32,65.87
49520.95,55.83,67.7
59405.0,46.54,56.44
56242.5,49.16,59.61
48768.88,56.69,68.74
44634.19,61.94,75.11
53379.56,51.79,62.81
